22 100000
10797 96
2205 69
33810 62
80754 95
96748 78
11581 21
34591 69
535 55
98499 7
88672 73
46590 19
10001 88
50495 61
36124 89
19077 59
7304 60
20209 44
99747 46
96345 10
98176 42
68790 24
61649 95
